c Reduced graph for p31_0 generated by Cyril Grelier
p edge 47 179
e 1 2
e 1 3
e 1 4
e 1 5
e 1 6
e 1 7
e 1 8
e 1 9
e 1 10
e 1 11
e 1 13
e 1 16
e 1 23
e 2 3
e 2 4
e 2 6
e 2 7
e 2 8
e 2 12
e 2 13
e 2 26
e 2 27
e 2 33
e 3 4
e 3 6
e 3 7
e 3 8
e 3 13
e 3 14
e 3 31
e 3 34
e 3 42
e 4 6
e 4 7
e 4 8
e 4 13
e 4 15
e 4 20
e 4 21
e 4 22
e 5 9
e 5 10
e 5 11
e 5 12
e 5 14
e 5 15
e 5 16
e 5 23
e 5 28
e 5 36
e 6 7
e 6 8
e 6 13
e 6 24
e 6 39
e 6 45
e 7 8
e 7 13
e 7 29
e 7 30
e 7 41
e 8 13
e 8 32
e 8 35
e 8 43
e 9 10
e 9 11
e 9 16
e 9 17
e 9 20
e 9 23
e 9 24
e 9 37
e 10 11
e 10 16
e 10 18
e 10 21
e 10 23
e 10 29
e 10 32
e 11 16
e 11 19
e 11 22
e 11 23
e 11 30
e 11 38
e 12 14
e 12 15
e 12 26
e 12 27
e 12 28
e 12 33
e 12 36
e 13 28
e 13 47
e 14 15
e 14 28
e 14 31
e 14 34
e 14 36
e 14 42
e 15 20
e 15 21
e 15 22
e 15 28
e 15 36
e 16 23
e 16 25
e 16 27
e 16 46
e 17 18
e 17 19
e 17 20
e 17 24
e 17 25
e 17 37
e 17 40
e 18 19
e 18 21
e 18 25
e 18 29
e 18 32
e 18 40
e 19 22
e 19 25
e 19 30
e 19 38
e 19 40
e 20 21
e 20 22
e 20 24
e 20 37
e 21 22
e 21 29
e 21 32
e 22 30
e 22 38
e 23 39
e 23 43
e 24 37
e 24 39
e 24 45
e 25 27
e 25 40
e 25 46
e 26 27
e 26 31
e 26 33
e 26 35
e 26 44
e 27 33
e 27 46
e 28 36
e 28 47
e 29 30
e 29 32
e 29 41
e 30 38
e 30 41
e 31 34
e 31 35
e 31 42
e 31 44
e 32 35
e 32 43
e 33 34
e 33 41
e 34 41
e 34 42
e 35 43
e 35 44
e 36 46
e 37 38
e 37 44
e 38 44
e 39 43
e 39 45
e 40 42
e 45 47
